COMUNI = {
	terni,
	orvieto,
	san_giustino,
	todi,
	magione,
	assisi,
	corciano,
	narni,
	gubbio,
	marsciano,
};

NUMERO_COMUNI = 10;

ABITANTI_PER_COMUNE = [106, 19, 11, 15, 14, 27, 21, 17, 30, 18];

STRADE_TRA_COMUNI = [|
	false, false, false, false, false, false, false, true, false, false |
	false, false, false, true, false, false, false, false, false, false |
	false, false, false, false, false, false, false, false, false, false |
	false, true, false, false, false, false, false, false, false, true |
	false, false, false, false, false, false, true, false, false, false |
	false, false, false, false, false, false, false, false, false, false |
	false, false, false, false, true, false, false, false, false, false |
	true, false, false, false, false, false, false, false, false, false |
	false, false, false, false, false, false, false, false, false, false |
	false, false, false, true, false, false, false, false, false, false |
|];

RICHIESTE = [|
	301, 326, 42, 474, 201 |
	187, 20, 472, 176, 271 |
	78, 201, 0, 109, 0 |
	123, 396, 10, 268, 62 |
	2, 500, 393, 91, 52 |
	32, 362, 295, 87, 87 |
	429, 534, 1039, 261, 160 |
	70, 36, 206, 226, 255 |
	40, 64, 251, 92, 227 |
	17, 11, 130, 190, 122 |
|];
